
Gurobi 13.0.1 (linux64, gurobi_cl) logging started Mon Feb  2 23:30:48 2026

Set parameter Username
Set parameter LicenseID to value 2774084
Set parameter LogFile to value "gurobi.log"
Using license file /home/devunivaq/gurobi.lic
Academic license - for non-commercial use only - expires 2027-02-02
